1
22950.00 49950.00 26400.00  14700.00
10
49 170 63  130 250
68 675 418  50 267
69 799 14  84 172
24 165 106  108 104
566 104 170  248 203
336 563 520  185 260
496 182 272  217 264
356 11 174  104 195
153 650 721  72 124
449 116 592  181 13
